338	0	1
0	162	354	0	1
1	218	382	300	0	13
2	218	358	0	1	9	12
3	201	370	125	0
4	214	371	0	1
5	224	370	0	1	29
6	210	382	150	0	19	25	26
7	104	354	150	0	27	11	22
8	126	338	0	1
9	119	340	300	0	2	12
10	129	349	100	0	18
11	126	347	950	0	7	27	22
12	125	346	125	0	2	9
13	116	355	150	0	1
14	126	335	150	0	23	16	20
15	125	355	550	0	24	28	21
16	119	357	0	1	14	23	20
17	115	341	0	1
18	153	351	150	0	10
19	175	363	400	0	6	25	26
20	180	360	300	0	14	23	16
21	159	331	1500	0	15	24	28
22	188	357	100	0	7	27	11
23	152	349	300	0	14	16	20
24	215	389	500	0	15	28	21
25	212	394	0	1	6	19	26
26	188	393	300	0	6	19	25
27	207	406	0	1	7	11	22
28	184	410	150	0	15	24	21
29	207	392	1000	0	5
